14004.0
1 0 1 0 0 1 0 1 1 0 0 1 0 0 1 0 0 1 0 0 1 0 0 0 1 1 0 0 0 0 
20 11 8 2 8 5 17 24 14 17 5 8 8 20 7 14 14 17 25 11 2 0 25 17 25 8 2 24 5 5 25 25 2 25 20 8 24 24 0 14 0 8 24 2 24 14 7 20 11 8 5 2 14 5 8 20 17 11 11 14 0 5 20 11 11 11 24 0 25 25 20 8 11 17 24 8 5 20 2 24 20 7 20 17 17 17 17 7 20 5 2 24 17 11 17 24 2 7 25 14 14 17 17 25 2 25 7 11 14 8 14 2 2 11 11 11 24 24 24 5 5 8 25 20 20 0 5 5 0 25 0 11 24 11 14 14 7 25 20 17 0 14 20 14 8 25 25 5 2 5 